
Gurobi 10.0.0 (win64) logging started Wed Jun 12 15:17:00 2024

Set parameter LogFile to value "C:\Users\ealvarezq\Documents\GitHub\Comillas\Models\JointResearch\05. Models\06.Benchmarking\B.Operation_cost\RTS24_mod2_ByStages_nc40/openStarNet_RTS24_mod2_ByStages_nc40.log"
Set parameter Method to value 2
Set parameter MIPFocus to value 1
Set parameter Presolve to value 2
Set parameter RINS to value 100
Set parameter MIPGap to value 0.01
Set parameter Threads to value 9
Set parameter TimeLimit to value 259200
Set parameter IterationLimit to value 760000000
Gurobi Optimizer version 10.0.0 build v10.0.0rc2 (win64)

CPU model: Intel(R) Core(TM) i7-8700 CPU @ 3.20GHz, instruction set [SSE2|AVX|AVX2]
Thread count: 6 physical cores, 12 logical processors, using up to 9 threads

Optimize a model with 14203 rows, 9617 columns and 38744 nonzeros
Model fingerprint: 0xc58365fd
Variable types: 9596 continuous, 21 integer (21 binary)
Coefficient statistics:
  Matrix range     [1e-02, 1e+03]
  Objective range  [1e+00, 1e+00]
  Bounds range     [4e-05, 2e+00]
  RHS range        [4e-05, 2e+00]
Presolve removed 8452 rows and 4855 columns
Presolve time: 0.06s
Presolved: 5751 rows, 4762 columns, 20771 nonzeros
Variable types: 4741 continuous, 21 integer (21 binary)
Found heuristic solution: objective 81.5768976
Root relaxation presolve removed 2 rows and 2 columns
Root relaxation presolved: 5749 rows, 4760 columns, 20767 nonzeros

Root barrier log...

Ordering time: 0.00s

Barrier statistics:
 Dense cols : 21
 AA' NZ     : 3.854e+04
 Factor NZ  : 1.105e+05 (roughly 5 MB of memory)
 Factor Ops : 2.264e+06 (less than 1 second per iteration)
 Threads    : 9

                  Objective                Residual
Iter       Primal          Dual         Primal    Dual     Compl     Time
   0   2.73541725e+06 -6.56979121e+07  2.23e+01 4.09e+02  4.15e+04     0s
   1   9.04288059e+05 -3.62199054e+07  7.31e+00 4.34e+01  1.24e+04     0s
   2   6.56249845e+04 -2.42654879e+07  5.06e-01 1.48e+01  2.38e+03     0s
   3   1.76979932e+04 -3.16459125e+06  5.04e-02 1.17e-09  2.56e+02     0s
   4   1.13044825e+04 -1.09404381e+05  1.97e-03 9.09e-11  9.03e+00     0s
   5   3.44713724e+03 -2.06574229e+04  2.11e-04 1.40e-11  1.79e+00     0s
   6   9.20667837e+02 -6.11182119e+03  3.76e-05 3.96e-12  5.23e-01     0s
   7   3.29822851e+02 -2.08125450e+03  5.52e-06 2.50e-12  1.79e-01     0s
   8   1.47677065e+02 -2.68299833e+02  4.63e-07 1.48e-12  3.09e-02     0s
   9   9.74677543e+01 -2.17645336e+01  1.73e-07 2.19e-12  8.87e-03     0s
  10   7.33092750e+01  2.49457992e+01  6.88e-08 1.26e-12  3.60e-03     0s
  11   6.41785470e+01  4.22693853e+01  3.37e-08 1.43e-12  1.63e-03     0s
  12   6.07619382e+01  4.84013631e+01  2.08e-08 1.64e-12  9.19e-04     0s
  13   5.88839502e+01  5.02977933e+01  1.35e-08 2.78e-12  6.39e-04     0s
  14   5.69458804e+01  5.36946123e+01  5.45e-09 9.91e-13  2.42e-04     0s
  15   5.68620478e+01  5.37190543e+01  5.12e-09 2.46e-12  2.34e-04     0s
  16   5.62163042e+01  5.44205048e+01  2.56e-09 1.68e-12  1.34e-04     0s
  17   5.58710728e+01  5.49946684e+01  1.16e-09 1.24e-12  6.52e-05     0s
  18   5.57276600e+01  5.52784450e+01  6.30e-10 1.05e-12  3.34e-05     0s
  19   5.56486067e+01  5.54631030e+01  3.27e-10 1.65e-12  1.38e-05     0s
  20   5.56125743e+01  5.55416498e+01  1.92e-10 1.81e-12  5.28e-06     0s
  21   5.56074024e+01  5.55512662e+01  1.73e-10 1.54e-12  4.18e-06     0s
  22   5.55728148e+01  5.55592541e+01  1.49e-10 8.22e-13  1.01e-06     0s
  23   5.55636958e+01  5.55608730e+01  1.13e-09 2.10e-12  2.10e-07     0s
  24   5.55617756e+01  5.55616197e+01  8.64e-10 2.75e-12  1.16e-08     0s
  25   5.55617185e+01  5.55617182e+01  9.91e-11 2.41e-12  2.09e-11     0s

Barrier solved model in 25 iterations and 0.22 seconds (0.20 work units)
Optimal objective 5.55617185e+01


Root relaxation: objective 5.556172e+01, 817 iterations, 0.14 seconds (0.10 work units)

    Nodes    |    Current Node    |     Objective Bounds      |     Work
 Expl Unexpl |  Obj  Depth IntInf | Incumbent    BestBd   Gap | It/Node Time

     0     0   55.56172    0   13   81.57690   55.56172  31.9%     -    0s
     0     0   55.85130    0   10   81.57690   55.85130  31.5%     -    0s
H    0     0                      76.6825281   55.85130  27.2%     -    0s
     0     0   55.85130    0   11   76.68253   55.85130  27.2%     -    0s
H    0     0                      72.7781415   56.20544  22.8%     -    0s
     0     0   56.20544    0   11   72.77814   56.20544  22.8%     -    0s
H    0     0                      71.8443843   56.20544  21.8%     -    0s
     0     0   56.20544    0   11   71.84438   56.20544  21.8%     -    0s
     0     0   56.29334    0   11   71.84438   56.29334  21.6%     -    0s
     0     0   56.31383    0   10   71.84438   56.31383  21.6%     -    0s
H    0     0                      71.4386834   56.40832  21.0%     -    1s
     0     0   56.40832    0   12   71.43868   56.40832  21.0%     -    1s
     0     0   56.42229    0   12   71.43868   56.42229  21.0%     -    1s
H    0     0                      69.6764098   56.42229  19.0%     -    1s
     0     0   56.49113    0   12   69.67641   56.49113  18.9%     -    1s
H    0     0                      68.0220879   56.49113  17.0%     -    4s
     0     2   56.49113    0   12   68.02209   56.49113  17.0%     -    4s
    72    60   60.42004    9    9   68.02209   56.82491  16.5%   172    5s

Cutting planes:
  Implied bound: 60
  MIR: 128
  Relax-and-lift: 19

Explored 1522 nodes (148495 simplex iterations) in 8.60 seconds (10.26 work units)
Thread count was 9 (of 12 available processors)

Solution count 7: 68.0221 69.6764 71.4387 ... 81.5769

Optimal solution found (tolerance 1.00e-02)
Best objective 6.802208792239e+01, best bound 6.802208792239e+01, gap 0.0000%

Gurobi 10.0.0 (win64) logging started Wed Jun 12 15:17:11 2024

Set parameter LogFile to value "C:\Users\ealvarezq\Documents\GitHub\Comillas\Models\JointResearch\05. Models\06.Benchmarking\B.Operation_cost\RTS24_mod2_ByStages_nc40/openStarNet_RTS24_mod2_ByStages_nc40.log"
Set parameter Method to value 2
Set parameter MIPFocus to value 1
Set parameter Presolve to value 2
Set parameter RINS to value 100
Set parameter MIPGap to value 0.01
Set parameter Threads to value 9
Set parameter TimeLimit to value 259200
Set parameter IterationLimit to value 760000000
Gurobi Optimizer version 10.0.0 build v10.0.0rc2 (win64)

CPU model: Intel(R) Core(TM) i7-8700 CPU @ 3.20GHz, instruction set [SSE2|AVX|AVX2]
Thread count: 6 physical cores, 12 logical processors, using up to 9 threads

Optimize a model with 14203 rows, 9596 columns and 35363 nonzeros
Model fingerprint: 0xabfd5a4d
Coefficient statistics:
  Matrix range     [1e-02, 1e+03]
  Objective range  [1e+00, 1e+00]
  Bounds range     [4e-05, 2e+00]
  RHS range        [4e-05, 2e+01]
Presolve removed 11963 rows and 5563 columns
Presolve time: 0.02s
Presolved: 2240 rows, 4106 columns, 10108 nonzeros

Ordering time: 0.00s

Barrier statistics:
 AA' NZ     : 5.849e+03
 Factor NZ  : 2.218e+04 (roughly 2 MB of memory)
 Factor Ops : 3.252e+05 (less than 1 second per iteration)
 Threads    : 1

                  Objective                Residual
Iter       Primal          Dual         Primal    Dual     Compl     Time
   0   9.13495821e+06 -4.70310661e+07  4.43e+01 2.42e+03  2.45e+05     0s
   1   6.89270857e+05 -3.96282592e+07  3.66e+00 2.31e+03  2.46e+04     0s
   2   5.78210840e+04 -2.00819224e+07  2.56e-01 7.28e-11  3.76e+03     0s
   3   3.12412325e+04 -5.86847379e+06  5.85e-02 9.09e-11  9.13e+02     0s
   4   2.00352724e+04 -2.68962104e+05  2.43e-03 3.64e-11  4.05e+01     0s
   5   8.70460027e+03 -6.39748281e+04  2.17e-04 1.91e-11  1.01e+01     0s
   6   2.61897451e+03 -1.53099815e+04  2.31e-05 6.48e-12  2.49e+00     0s
   7   5.02563118e+02 -1.65653995e+03  5.89e-07 3.88e-12  2.99e-01     0s
   8   1.78083293e+02 -7.11067886e+02  2.23e-08 4.63e-12  1.23e-01     0s
   9   1.10375731e+02 -1.32844838e+02  1.21e-09 4.70e-12  3.37e-02     0s
  10   9.21657603e+01 -3.72613966e+00  5.47e-10 4.47e-12  1.33e-02     0s
  11   7.87713601e+01  4.30002614e+01  2.00e-10 5.67e-12  4.96e-03     0s
  12   7.23561575e+01  5.97270419e+01  7.43e-11 4.07e-12  1.75e-03     0s
  13   6.93721091e+01  6.61445611e+01  2.06e-11 6.51e-12  4.47e-04     0s
  14   6.81586338e+01  6.78116156e+01  1.15e-10 6.73e-12  4.81e-05     0s
  15   6.80314560e+01  6.79837274e+01  1.53e-10 6.91e-12  6.61e-06     0s
  16   6.80239769e+01  6.80121021e+01  4.03e-09 8.09e-12  1.65e-06     0s
  17   6.80223831e+01  6.80215945e+01  4.17e-10 3.67e-12  1.09e-07     0s
  18   6.80220892e+01  6.80220859e+01  1.82e-09 7.16e-12  4.49e-10     0s
  19   6.80220880e+01  6.80220879e+01  1.81e-09 1.46e-11  5.06e-16     0s
  20   6.80220879e+01  6.80220879e+01  2.16e-11 3.64e-12  4.70e-18     0s

Barrier solved model in 20 iterations and 0.05 seconds (0.05 work units)
Optimal objective 6.80220879e+01

Crossover log...

     463 DPushes remaining with DInf 0.0000000e+00                 0s
       0 DPushes remaining with DInf 0.0000000e+00                 0s

     153 PPushes remaining with PInf 0.0000000e+00                 0s
       0 PPushes remaining with PInf 0.0000000e+00                 0s

  Push phase complete: Pinf 0.0000000e+00, Dinf 4.5058889e-13      0s

Iteration    Objective       Primal Inf.    Dual Inf.      Time
     163    6.8022088e+01   0.000000e+00   0.000000e+00      0s

Use crossover to convert LP symmetric solution to basic solution...
Crossover log...

       0 DPushes remaining with DInf 0.0000000e+00                 0s

      87 PPushes remaining with PInf 0.0000000e+00                 0s
       0 PPushes remaining with PInf 0.0000000e+00                 0s

  Push phase complete: Pinf 0.0000000e+00, Dinf 4.0822131e-13      0s

Iteration    Objective       Primal Inf.    Dual Inf.      Time
     260    6.8022088e+01   0.000000e+00   0.000000e+00      0s

Solved in 260 iterations and 0.07 seconds (0.06 work units)
Optimal objective  6.802208792e+01
